34 29 143 99 1 47 140 91 116 177 54 112 86 25 162 130 147 94 55 150 27 11 114 105 103 182 81 132 46 20 181 163 113 24 19 141 9 8 101 115 2 82 39 5 17 84 58 149 63 142 188 95 85 159 173 64 186 13 67 32 165 44 98 77 30 56 71 134 160 75 79 193 156 133 126 108 124 145 45 51 7 65 185 148 37 137 119 179 80 33 129 174 49 168 93 139 16 89 88 10 167 109 41 22 120 189 100 194 73 111 60 170 6 197 131 66 74 158 35 128 107 198 175 196 190 28 127 57 102 110 192 21 184 172 152 69 48 169 97 138 166 96 104 31 161 125 199 155 0 26 23 164 87 178 12 180 78 146 40 83 136 171 68 106 183 157 151 15 62 153 14 72 38 90 53 76 42 70 187 122 121 92 3 154 43 59 52 123 176 4 117 144 135 195 18 191 50 118 36 61